data/CVRPLIB/Vrp-Set-XML100/instances/XML100_2116_12.vrp
NAME : XML100_2116_12
COMMENT : Generated by Queiroga, Sadykov, Uchoa, and Vidal (2021)
TYPE : CVRP
DIMENSION : 101
EDGE_WEIGHT_TYPE : EUC_2D
CAPACITY : 41
NODE_COORD_SECTION
1    500  500 
2    582  326 
3    271  257 
4    48   598 
5    425  30  
6    675  563 
7    101  347 
8    511  611 
9    310  129 
10   728  181 
11   259  280 
12   352  731 
13   257  25  
14   662  698 
15   712  627 
16   26   161 
17   941  718 
18   407  712 
19   397  944 
20   689  767 
21   589  226 
22   750  758 
23   221  852 
24   725  510 
25   278  932 
26   23   710 
27   369  945 
28   895  586 
29   715  426 
30   90   59  
31   209  980 
32   716  184 
33   395  47  
34   206  969 
35   518  815 
36   926  985 
37   419  878 
38   447  379 
39   754  79  
40   164  846 
41   335  156 
42   311  740 
43   322  786 
44   510  529 
45   544  688 
46   710  822 
47   24   351 
48   928  956 
49   207  524 
50   762  794 
51   388  750 
52   680  125 
53   246  130 
54   554  175 
55   568  674 
56   396  272 
57   555  655 
58   584  123 
59   678  999 
60   736  634 
61   327  609 
62   645  230 
63   211  250 
64   522  115 
65   952  26  
66   802  687 
67   608  891 
68   819  60  
69   305  935 
70   487  359 
71   420  172 
72   907  372 
73   436  360 
74   872  148 
75   64   405 
76   881  425 
77   173  867 
78   3    724 
79   491  1000
80   0    485 
81   620  265 
82   215  196 
83   352  510 
84   798  463 
85   506  886 
86   214  943 
87   0    556 
88   912  475 
89   3    120 
90   5    326 
91   510  855 
92   379  947 
93   298  823 
94   664  523 
95   96   823 
96   249  247 
97   712  716 
98   53   182 
99   514  77  
100  700  685 
101  133  380 
DEMAND_SECTION
1    0   
2    1   
3    1   
4    1   
5    1   
6    1   
7    1   
8    1   
9    1   
10   1   
11   1   
12   1   
13   1   
14   1   
15   1   
16   1   
17   1   
18   1   
19   1   
20   1   
21   1   
22   1   
23   1   
24   1   
25   1   
26   1   
27   1   
28   1   
29   1   
30   1   
31   1   
32   1   
33   1   
34   1   
35   1   
36   1   
37   1   
38   1   
39   1   
40   1   
41   1   
42   1   
43   1   
44   1   
45   1   
46   1   
47   1   
48   1   
49   1   
50   1   
51   1   
52   1   
53   1   
54   1   
55   1   
56   1   
57   1   
58   1   
59   1   
60   1   
61   1   
62   1   
63   1   
64   1   
65   1   
66   1   
67   1   
68   1   
69   1   
70   1   
71   1   
72   1   
73   1   
74   1   
75   1   
76   1   
77   1   
78   1   
79   1   
80   1   
81   1   
82   1   
83   1   
84   1   
85   1   
86   1   
87   1   
88   1   
89   1   
90   1   
91   1   
92   1   
93   1   
94   1   
95   1   
96   1   
97   1   
98   1   
99   1   
100  1   
101  1   
DEPOT_SECTION
1
-1
EOF
