data/CVRPLIB/Vrp-Set-XML100/solutions/XML100_2116_12.sol
Route #1: 69 1 80 20 61 31 9 73 64 67 38 51 57 53 63 98 4 32 12 29 88 15 97 62 10 2 95 81 52 8 40 70 55 72 37
Route #2: 60 17 50 11 41 42 92 36 34 90 84 78 18 91 26 68 24 30 33 85 22 76 39 94 77 25 3 86 79 74 46 89 6 100 48 82
Route #3: 93 5 23 28 83 75 71 87 27 16 47 35 58 66 45 49 21 65 59 14 99 96 19 13 54 44 56 7 43
Cost 8317
